RAW/XT/fspd/X-n139-k10.vrp_seed-4.out
13053	8.71	32.9
