RAW/XT/fspd/X-n139-k10.vrp_seed-4.sol
Route #1: 98
Route #2: 79 121 20 45 110 35 58 13 31 97 74 10 109 88 124
Route #3: 3 56 76 75 133 64 127 130 93 132 107 92 41 80 78 120 73 54
Route #4: 62 4 23 9 26 108 94 69 38 131 34 115 27 123 50 70
Route #5: 16 32 118 85 24 114 137 22 112 25 125 36 52 95
Route #6: 84 100 67 134 40 37 17 47 119 128 11 14 102 81 71
Route #7: 111 105 82 106 77 43 46 55 18 1 21 138 122
Route #8: 29 44 72 117 12 90 113 6 5 96 53 129 49 2 99 87 126
Route #9: 7 30 51 39 42 59 60 61 19 66 48 65 15 8 57
Route #10: 91 89 104 86 33 135 101 116 68 83 136 103 28 63
Cost 13053.000000